n_boats=65;
n_periods=29;
capacity=[47,33,34,1,24,29,3,32,33,26,57,35,15,42,57,35,56,22,38,54,16,24,16,30,23,56,2,43,5,31,41,49,42,17,48,18,34,27,32,4,25,1,1,49,2,13,48,22,19,38,29,6,48,38,5,40,35,29,22,3,2,5,43,36,15];
crew=[10,13,10,1,6,17,1,10,16,6,33,18,3,21,34,18,26,4,14,14,5,4,7,16,13,21,1,21,1,13,22,24,9,10,23,6,17,11,9,2,14,1,1,11,1,2,19,11,8,13,12,2,28,20,2,9,13,15,4,1,1,3,12,9,4];
